computational_data/solutions/ER_n30_p020_s5.sol
Optimal - objective value 10.00000000
      4 r_4                         1                       1
     16 r_16                        1                       1
     18 r_18                        1                       1
     22 r_22                        1                       1
     27 r_27                        1                       1
     32 b_2                         1                       1
     36 b_6                         1                       1
     40 b_10                        1                       1
     47 b_17                        1                       1
     59 b_29                        1                       1
